NAME: SH_64.hcp
COMMENT: 
TYPE: HCP
DIMENSION: 64
EDGE_DATA_FORMAT : EDGE_LIST
EDGE_DATA_SECTION
1 2
1 64
2 1
2 3
2 4
2 5
2 6
2 7
2 8
2 9
2 10
2 11
2 12
2 13
2 14
2 15
2 16
2 17
2 18
2 19
2 20
2 21
2 22
2 23
2 24
2 25
2 26
2 27
2 28
2 29
2 30
2 31
2 32
2 33
2 34
2 35
2 36
2 37
2 38
2 39
2 40
2 41
2 42
2 43
2 44
2 45
2 46
2 47
2 48
2 49
2 50
2 51
2 52
2 53
2 54
2 55
2 56
2 57
2 58
2 59
2 60
2 61
2 62
2 63
2 64
3 2
3 4
4 2
4 3
4 5
4 6
4 7
4 8
4 9
4 10
4 11
4 12
4 13
4 14
4 15
4 16
4 17
4 18
4 19
4 20
4 21
4 22
4 23
4 24
4 25
4 26
4 27
4 28
4 29
4 30
4 31
4 32
4 33
4 34
4 35
4 36
4 37
4 38
4 39
4 40
4 41
4 42
4 43
4 44
4 45
4 46
4 47
4 48
4 49
4 50
4 51
4 52
4 53
4 54
4 55
4 56
4 57
4 58
4 59
4 60
4 61
4 62
4 63
4 64
5 2
5 4
5 6
6 2
6 4
6 5
6 7
6 8
6 9
6 10
6 11
6 12
6 13
6 14
6 15
6 16
6 17
6 18
6 19
6 20
6 21
6 22
6 23
6 24
6 25
6 26
6 27
6 28
6 29
6 30
6 31
6 32
6 33
6 34
6 35
6 36
6 37
6 38
6 39
6 40
6 41
6 42
6 43
6 44
6 45
6 46
6 47
6 48
6 49
6 50
6 51
6 52
6 53
6 54
6 55
6 56
6 57
6 58
6 59
6 60
6 61
6 62
6 63
6 64
7 2
7 4
7 6
7 8
8 2
8 4
8 6
8 7
8 9
8 10
8 11
8 12
8 13
8 14
8 15
8 16
8 17
8 18
8 19
8 20
8 21
8 22
8 23
8 24
8 25
8 26
8 27
8 28
8 29
8 30
8 31
8 32
8 33
8 34
8 35
8 36
8 37
8 38
8 39
8 40
8 41
8 42
8 43
8 44
8 45
8 46
8 47
8 48
8 49
8 50
8 51
8 52
8 53
8 54
8 55
8 56
8 57
8 58
8 59
8 60
8 61
8 62
8 63
8 64
9 2
9 4
9 6
9 8
9 10
10 2
10 4
10 6
10 8
10 9
10 11
10 12
10 13
10 14
10 15
10 16
10 17
10 18
10 19
10 20
10 21
10 22
10 23
10 24
10 25
10 26
10 27
10 28
10 29
10 30
10 31
10 32
10 33
10 34
10 35
10 36
10 37
10 38
10 39
10 40
10 41
10 42
10 43
10 44
10 45
10 46
10 47
10 48
10 49
10 50
10 51
10 52
10 53
10 54
10 55
10 56
10 57
10 58
10 59
10 60
10 61
10 62
10 63
10 64
11 2
11 4
11 6
11 8
11 10
11 12
12 2
12 4
12 6
12 8
12 10
12 11
12 13
12 14
12 15
12 16
12 17
12 18
12 19
12 20
12 21
12 22
12 23
12 24
12 25
12 26
12 27
12 28
12 29
12 30
12 31
12 32
12 33
12 34
12 35
12 36
12 37
12 38
12 39
12 40
12 41
12 42
12 43
12 44
12 45
12 46
12 47
12 48
12 49
12 50
12 51
12 52
12 53
12 54
12 55
12 56
12 57
12 58
12 59
12 60
12 61
12 62
12 63
12 64
13 2
13 4
13 6
13 8
13 10
13 12
13 14
14 2
14 4
14 6
14 8
14 10
14 12
14 13
14 15
14 16
14 17
14 18
14 19
14 20
14 21
14 22
14 23
14 24
14 25
14 26
14 27
14 28
14 29
14 30
14 31
14 32
14 33
14 34
14 35
14 36
14 37
14 38
14 39
14 40
14 41
14 42
14 43
14 44
14 45
14 46
14 47
14 48
14 49
14 50
14 51
14 52
14 53
14 54
14 55
14 56
14 57
14 58
14 59
14 60
14 61
14 62
14 63
14 64
15 2
15 4
15 6
15 8
15 10
15 12
15 14
15 16
16 2
16 4
16 6
16 8
16 10
16 12
16 14
16 15
16 17
16 18
16 19
16 20
16 21
16 22
16 23
16 24
16 25
16 26
16 27
16 28
16 29
16 30
16 31
16 32
16 33
16 34
16 35
16 36
16 37
16 38
16 39
16 40
16 41
16 42
16 43
16 44
16 45
16 46
16 47
16 48
16 49
16 50
16 51
16 52
16 53
16 54
16 55
16 56
16 57
16 58
16 59
16 60
16 61
16 62
16 63
16 64
17 2
17 4
17 6
17 8
17 10
17 12
17 14
17 16
17 18
18 2
18 4
18 6
18 8
18 10
18 12
18 14
18 16
18 17
18 19
18 20
18 21
18 22
18 23
18 24
18 25
18 26
18 27
18 28
18 29
18 30
18 31
18 32
18 33
18 34
18 35
18 36
18 37
18 38
18 39
18 40
18 41
18 42
18 43
18 44
18 45
18 46
18 47
18 48
18 49
18 50
18 51
18 52
18 53
18 54
18 55
18 56
18 57
18 58
18 59
18 60
18 61
18 62
18 63
18 64
19 2
19 4
19 6
19 8
19 10
19 12
19 14
19 16
19 18
19 20
20 2
20 4
20 6
20 8
20 10
20 12
20 14
20 16
20 18
20 19
20 21
20 22
20 23
20 24
20 25
20 26
20 27
20 28
20 29
20 30
20 31
20 32
20 33
20 34
20 35
20 36
20 37
20 38
20 39
20 40
20 41
20 42
20 43
20 44
20 45
20 46
20 47
20 48
20 49
20 50
20 51
20 52
20 53
20 54
20 55
20 56
20 57
20 58
20 59
20 60
20 61
20 62
20 63
20 64
21 2
21 4
21 6
21 8
21 10
21 12
21 14
21 16
21 18
21 20
21 22
22 2
22 4
22 6
22 8
22 10
22 12
22 14
22 16
22 18
22 20
22 21
22 23
22 24
22 25
22 26
22 27
22 28
22 29
22 30
22 31
22 32
22 33
22 34
22 35
22 36
22 37
22 38
22 39
22 40
22 41
22 42
22 43
22 44
22 45
22 46
22 47
22 48
22 49
22 50
22 51
22 52
22 53
22 54
22 55
22 56
22 57
22 58
22 59
22 60
22 61
22 62
22 63
22 64
23 2
23 4
23 6
23 8
23 10
23 12
23 14
23 16
23 18
23 20
23 22
23 24
24 2
24 4
24 6
24 8
24 10
24 12
24 14
24 16
24 18
24 20
24 22
24 23
24 25
24 26
24 27
24 28
24 29
24 30
24 31
24 32
24 33
24 34
24 35
24 36
24 37
24 38
24 39
24 40
24 41
24 42
24 43
24 44
24 45
24 46
24 47
24 48
24 49
24 50
24 51
24 52
24 53
24 54
24 55
24 56
24 57
24 58
24 59
24 60
24 61
24 62
24 63
24 64
25 2
25 4
25 6
25 8
25 10
25 12
25 14
25 16
25 18
25 20
25 22
25 24
25 26
26 2
26 4
26 6
26 8
26 10
26 12
26 14
26 16
26 18
26 20
26 22
26 24
26 25
26 27
26 28
26 29
26 30
26 31
26 32
26 33
26 34
26 35
26 36
26 37
26 38
26 39
26 40
26 41
26 42
26 43
26 44
26 45
26 46
26 47
26 48
26 49
26 50
26 51
26 52
26 53
26 54
26 55
26 56
26 57
26 58
26 59
26 60
26 61
26 62
26 63
26 64
27 2
27 4
27 6
27 8
27 10
27 12
27 14
27 16
27 18
27 20
27 22
27 24
27 26
27 28
28 2
28 4
28 6
28 8
28 10
28 12
28 14
28 16
28 18
28 20
28 22
28 24
28 26
28 27
28 29
28 30
28 31
28 32
28 33
28 34
28 35
28 36
28 37
28 38
28 39
28 40
28 41
28 42
28 43
28 44
28 45
28 46
28 47
28 48
28 49
28 50
28 51
28 52
28 53
28 54
28 55
28 56
28 57
28 58
28 59
28 60
28 61
28 62
28 63
28 64
29 2
29 4
29 6
29 8
29 10
29 12
29 14
29 16
29 18
29 20
29 22
29 24
29 26
29 28
29 30
30 2
30 4
30 6
30 8
30 10
30 12
30 14
30 16
30 18
30 20
30 22
30 24
30 26
30 28
30 29
30 31
30 32
30 33
30 34
30 35
30 36
30 37
30 38
30 39
30 40
30 41
30 42
30 43
30 44
30 45
30 46
30 47
30 48
30 49
30 50
30 51
30 52
30 53
30 54
30 55
30 56
30 57
30 58
30 59
30 60
30 61
30 62
30 63
30 64
31 2
31 4
31 6
31 8
31 10
31 12
31 14
31 16
31 18
31 20
31 22
31 24
31 26
31 28
31 30
31 32
32 2
32 4
32 6
32 8
32 10
32 12
32 14
32 16
32 18
32 20
32 22
32 24
32 26
32 28
32 30
32 31
32 33
32 34
32 35
32 36
32 37
32 38
32 39
32 40
32 41
32 42
32 43
32 44
32 45
32 46
32 47
32 48
32 49
32 50
32 51
32 52
32 53
32 54
32 55
32 56
32 57
32 58
32 59
32 60
32 61
32 62
32 63
32 64
33 2
33 4
33 6
33 8
33 10
33 12
33 14
33 16
33 18
33 20
33 22
33 24
33 26
33 28
33 30
33 32
33 34
34 2
34 4
34 6
34 8
34 10
34 12
34 14
34 16
34 18
34 20
34 22
34 24
34 26
34 28
34 30
34 32
34 33
34 35
34 36
34 37
34 38
34 39
34 40
34 41
34 42
34 43
34 44
34 45
34 46
34 47
34 48
34 49
34 50
34 51
34 52
34 53
34 54
34 55
34 56
34 57
34 58
34 59
34 60
34 61
34 62
34 63
34 64
35 2
35 4
35 6
35 8
35 10
35 12
35 14
35 16
35 18
35 20
35 22
35 24
35 26
35 28
35 30
35 32
35 34
35 36
36 2
36 4
36 6
36 8
36 10
36 12
36 14
36 16
36 18
36 20
36 22
36 24
36 26
36 28
36 30
36 32
36 34
36 35
36 37
36 38
36 39
36 40
36 41
36 42
36 43
36 44
36 45
36 46
36 47
36 48
36 49
36 50
36 51
36 52
36 53
36 54
36 55
36 56
36 57
36 58
36 59
36 60
36 61
36 62
36 63
36 64
37 2
37 4
37 6
37 8
37 10
37 12
37 14
37 16
37 18
37 20
37 22
37 24
37 26
37 28
37 30
37 32
37 34
37 36
37 38
38 2
38 4
38 6
38 8
38 10
38 12
38 14
38 16
38 18
38 20
38 22
38 24
38 26
38 28
38 30
38 32
38 34
38 36
38 37
38 39
38 40
38 41
38 42
38 43
38 44
38 45
38 46
38 47
38 48
38 49
38 50
38 51
38 52
38 53
38 54
38 55
38 56
38 57
38 58
38 59
38 60
38 61
38 62
38 63
38 64
39 2
39 4
39 6
39 8
39 10
39 12
39 14
39 16
39 18
39 20
39 22
39 24
39 26
39 28
39 30
39 32
39 34
39 36
39 38
39 40
40 2
40 4
40 6
40 8
40 10
40 12
40 14
40 16
40 18
40 20
40 22
40 24
40 26
40 28
40 30
40 32
40 34
40 36
40 38
40 39
40 41
40 42
40 43
40 44
40 45
40 46
40 47
40 48
40 49
40 50
40 51
40 52
40 53
40 54
40 55
40 56
40 57
40 58
40 59
40 60
40 61
40 62
40 63
40 64
41 2
41 4
41 6
41 8
41 10
41 12
41 14
41 16
41 18
41 20
41 22
41 24
41 26
41 28
41 30
41 32
41 34
41 36
41 38
41 40
41 42
42 2
42 4
42 6
42 8
42 10
42 12
42 14
42 16
42 18
42 20
42 22
42 24
42 26
42 28
42 30
42 32
42 34
42 36
42 38
42 40
42 41
42 43
42 44
42 45
42 46
42 47
42 48
42 49
42 50
42 51
42 52
42 53
42 54
42 55
42 56
42 57
42 58
42 59
42 60
42 61
42 62
42 63
42 64
43 2
43 4
43 6
43 8
43 10
43 12
43 14
43 16
43 18
43 20
43 22
43 24
43 26
43 28
43 30
43 32
43 34
43 36
43 38
43 40
43 42
43 44
44 2
44 4
44 6
44 8
44 10
44 12
44 14
44 16
44 18
44 20
44 22
44 24
44 26
44 28
44 30
44 32
44 34
44 36
44 38
44 40
44 42
44 43
44 45
44 46
44 47
44 48
44 49
44 50
44 51
44 52
44 53
44 54
44 55
44 56
44 57
44 58
44 59
44 60
44 61
44 62
44 63
44 64
45 2
45 4
45 6
45 8
45 10
45 12
45 14
45 16
45 18
45 20
45 22
45 24
45 26
45 28
45 30
45 32
45 34
45 36
45 38
45 40
45 42
45 44
45 46
46 2
46 4
46 6
46 8
46 10
46 12
46 14
46 16
46 18
46 20
46 22
46 24
46 26
46 28
46 30
46 32
46 34
46 36
46 38
46 40
46 42
46 44
46 45
46 47
46 48
46 49
46 50
46 51
46 52
46 53
46 54
46 55
46 56
46 57
46 58
46 59
46 60
46 61
46 62
46 63
46 64
47 2
47 4
47 6
47 8
47 10
47 12
47 14
47 16
47 18
47 20
47 22
47 24
47 26
47 28
47 30
47 32
47 34
47 36
47 38
47 40
47 42
47 44
47 46
47 48
48 2
48 4
48 6
48 8
48 10
48 12
48 14
48 16
48 18
48 20
48 22
48 24
48 26
48 28
48 30
48 32
48 34
48 36
48 38
48 40
48 42
48 44
48 46
48 47
48 49
48 50
48 51
48 52
48 53
48 54
48 55
48 56
48 57
48 58
48 59
48 60
48 61
48 62
48 63
48 64
49 2
49 4
49 6
49 8
49 10
49 12
49 14
49 16
49 18
49 20
49 22
49 24
49 26
49 28
49 30
49 32
49 34
49 36
49 38
49 40
49 42
49 44
49 46
49 48
49 50
50 2
50 4
50 6
50 8
50 10
50 12
50 14
50 16
50 18
50 20
50 22
50 24
50 26
50 28
50 30
50 32
50 34
50 36
50 38
50 40
50 42
50 44
50 46
50 48
50 49
50 51
50 52
50 53
50 54
50 55
50 56
50 57
50 58
50 59
50 60
50 61
50 62
50 63
50 64
51 2
51 4
51 6
51 8
51 10
51 12
51 14
51 16
51 18
51 20
51 22
51 24
51 26
51 28
51 30
51 32
51 34
51 36
51 38
51 40
51 42
51 44
51 46
51 48
51 50
51 52
52 2
52 4
52 6
52 8
52 10
52 12
52 14
52 16
52 18
52 20
52 22
52 24
52 26
52 28
52 30
52 32
52 34
52 36
52 38
52 40
52 42
52 44
52 46
52 48
52 50
52 51
52 53
52 54
52 55
52 56
52 57
52 58
52 59
52 60
52 61
52 62
52 63
52 64
53 2
53 4
53 6
53 8
53 10
53 12
53 14
53 16
53 18
53 20
53 22
53 24
53 26
53 28
53 30
53 32
53 34
53 36
53 38
53 40
53 42
53 44
53 46
53 48
53 50
53 52
53 54
54 2
54 4
54 6
54 8
54 10
54 12
54 14
54 16
54 18
54 20
54 22
54 24
54 26
54 28
54 30
54 32
54 34
54 36
54 38
54 40
54 42
54 44
54 46
54 48
54 50
54 52
54 53
54 55
54 56
54 57
54 58
54 59
54 60
54 61
54 62
54 63
54 64
55 2
55 4
55 6
55 8
55 10
55 12
55 14
55 16
55 18
55 20
55 22
55 24
55 26
55 28
55 30
55 32
55 34
55 36
55 38
55 40
55 42
55 44
55 46
55 48
55 50
55 52
55 54
55 56
56 2
56 4
56 6
56 8
56 10
56 12
56 14
56 16
56 18
56 20
56 22
56 24
56 26
56 28
56 30
56 32
56 34
56 36
56 38
56 40
56 42
56 44
56 46
56 48
56 50
56 52
56 54
56 55
56 57
56 58
56 59
56 60
56 61
56 62
56 63
56 64
57 2
57 4
57 6
57 8
57 10
57 12
57 14
57 16
57 18
57 20
57 22
57 24
57 26
57 28
57 30
57 32
57 34
57 36
57 38
57 40
57 42
57 44
57 46
57 48
57 50
57 52
57 54
57 56
57 58
58 2
58 4
58 6
58 8
58 10
58 12
58 14
58 16
58 18
58 20
58 22
58 24
58 26
58 28
58 30
58 32
58 34
58 36
58 38
58 40
58 42
58 44
58 46
58 48
58 50
58 52
58 54
58 56
58 57
58 59
58 60
58 61
58 62
58 63
58 64
59 2
59 4
59 6
59 8
59 10
59 12
59 14
59 16
59 18
59 20
59 22
59 24
59 26
59 28
59 30
59 32
59 34
59 36
59 38
59 40
59 42
59 44
59 46
59 48
59 50
59 52
59 54
59 56
59 58
59 60
60 2
60 4
60 6
60 8
60 10
60 12
60 14
60 16
60 18
60 20
60 22
60 24
60 26
60 28
60 30
60 32
60 34
60 36
60 38
60 40
60 42
60 44
60 46
60 48
60 50
60 52
60 54
60 56
60 58
60 59
60 61
60 62
60 63
60 64
61 2
61 4
61 6
61 8
61 10
61 12
61 14
61 16
61 18
61 20
61 22
61 24
61 26
61 28
61 30
61 32
61 34
61 36
61 38
61 40
61 42
61 44
61 46
61 48
61 50
61 52
61 54
61 56
61 58
61 60
61 62
62 2
62 4
62 6
62 8
62 10
62 12
62 14
62 16
62 18
62 20
62 22
62 24
62 26
62 28
62 30
62 32
62 34
62 36
62 38
62 40
62 42
62 44
62 46
62 48
62 50
62 52
62 54
62 56
62 58
62 60
62 61
62 63
62 64
63 2
63 4
63 6
63 8
63 10
63 12
63 14
63 16
63 18
63 20
63 22
63 24
63 26
63 28
63 30
63 32
63 34
63 36
63 38
63 40
63 42
63 44
63 46
63 48
63 50
63 52
63 54
63 56
63 58
63 60
63 62
63 64
64 1
64 2
64 4
64 6
64 8
64 10
64 12
64 14
64 16
64 18
64 20
64 22
64 24
64 26
64 28
64 30
64 32
64 34
64 36
64 38
64 40
64 42
64 44
64 46
64 48
64 50
64 52
64 54
64 56
64 58
64 60
64 62
64 63
-1
EOF